145
dUTPase reactant
Mg          -15.3268529470        1.4632295659       -1.0689573694
 C           -8.4164592759        5.5452656629       -2.9650106035
 O           -9.3402493154        5.7872570387       -2.1973473058
 H           -7.7312035881        4.7036851714       -2.7697570508
 N           -8.1491879390        6.2274259639       -4.1022037963
 H           -7.2608610308        6.0279591647       -4.5717793445
 C           -8.9707280421        7.3158880890       -4.6261781266
 H           -9.7894951408        7.4741850002       -3.9249640390
 H           -8.4168514116        8.2609255650       -4.7635639595
 H           -9.3852242765        6.9709138767       -5.5786824199
 C          -12.9552374983        5.7768414848       -6.8108402535
 H          -13.5538080809        6.5775297780       -6.3666900035
 H          -13.4696589383        5.3884138963       -7.6948485026
 C          -12.7285079014        4.6280757354       -5.8061949846
 O          -12.2652348779        3.5475038426       -6.2540235530
 O          -12.9817260993        4.8542087985       -4.5842820097
 H          -11.9586992977        6.1810527557       -7.0985883954
 C          -13.8325342842        5.7077860431       -0.8851960288
 H          -14.5334407988        5.6763890343       -0.0452580584
 H          -14.3012878003        5.2363046690       -1.7527923394
 O          -12.6323952058        4.9848789567       -0.5343924823
 P          -12.7460013869        3.4281253970       -0.1364007318
 O          -13.6416710359        2.6667916288       -1.0932127959
 O          -11.3788270598        2.9088937047        0.1928722536
 O          -13.5478551671        3.5786092974        1.3247289385
 P          -14.9889100220        2.9847324124        1.7926992041
 O          -15.2425928765        1.6634053028        1.0780831300
 O          -14.9919340389        3.0141036358        3.3004593191
 O          -16.0245929250        4.1037159077        1.2375810086
 P          -17.3496040344        3.6894077211        0.2568001416
 O          -18.2144417730        2.7983502633        1.1818379974
 O          -16.7627284012        2.9496734297       -0.9597703979
 O          -17.9370132011        5.0568458675       -0.1044079821
 C          -13.4855615945        7.1357865175       -1.2313673273
 H          -14.4157539874        7.6249665023       -1.5582883966
 O          -12.9763162791        7.8290229552       -0.0650181697
 C          -12.0172353532        8.8052633415       -0.4498784649
 H          -12.3333455643        9.7931167673       -0.1159765583
 N          -10.7381718723        8.5455279754        0.2617977141
 C          -10.2037304791        7.2801739497        0.2157188863
 H          -10.8327131929        6.5200936120       -0.2255375220
 C          -10.0444913938        9.6032640291        0.8406420491
 O          -10.4656087862       10.7632406689        0.8752021867
 N           -8.8126264100        9.2605577108        1.3715490530
 H           -8.3783734316        9.9796811531        1.9697248727
 C           -8.1972638050        8.0137868509        1.3202343404
 O           -7.0582233406        7.8549751887        1.8081755819
 C           -8.9713558354        6.9890463930        0.6917115624
 H           -8.5876828734        5.9813102384        0.6200175690
 C          -11.8759868288        8.7004875343       -1.9763680294
 H          -10.8524225570        8.8568395067       -2.3166414623
 H          -12.5133225840        9.4481313866       -2.4399182572
 C          -12.4469832570        7.3291977236       -2.3462824948
 H          -11.6773766843        6.5510557898       -2.3057598672
 O          -13.0490780936        7.3535712309       -3.6235912270
 H          -13.0311185726        6.4297128497       -4.0011877472
 O           -9.4468715219        8.1736429562        4.7712834943
 H          -10.0217491247        8.9163966379        4.4796881570
 H           -8.5068662945        8.4100724781        4.6078257803
 O          -15.3871500682        1.1811907817        5.2235573957
 H          -15.3778258061        0.3113891168        4.7959826338
 H          -15.3148142766        1.8276784849        4.4797789295
 O           -9.7738744547        6.4492089875        6.8688313949
 H          -10.5729092399        5.9155285163        6.6795389187
 H           -9.6743259237        7.0806037301        6.1136980932
 O          -11.5040800247        2.8181659867       -3.2914594966
 H          -12.0333201534        3.5397331199       -3.6956496410
 H          -12.0563501930        2.4725538406       -2.5809913709
 O          -15.7470316716       -1.0196458741       -4.3318386255
 H          -14.9740656911       -1.2408447852       -4.9017933379
 H          -15.6280073664       -1.5732561446       -3.5135224650
 O          -15.8628363735       11.9944990794        1.2213699393
 H          -15.0703264425       12.1301655794        0.6549570065
 H          -16.6007916123       11.9292972754        0.5784094281
 O          -12.7494621074        0.9944196096       -5.0738831522
 H          -12.1901009232        0.8705301263       -4.2845199698
 H          -12.5240172145        1.9092392985       -5.3649197558
 O          -17.0081403900        0.1494886421       -1.0192217425
 H          -17.8977192895        0.4970620308       -0.8168766296
 H          -17.0836960701       -0.8378773373       -1.1107589525
 O          -15.2479312257        1.4242267775       -3.1822512811
 H          -14.4324398200        1.6905519606       -3.6520996971
 H          -15.5049698072        0.5864850554       -3.6457459395
 O          -14.1874567665       -0.3143356233       -1.0382949641
 H          -13.3640251570       -0.1918433101       -1.5713733547
 H          -14.6434440282       -1.0992707686       -1.4490796610
 C          -14.6020642271       -1.6804308337        2.6616171528
 H          -14.8002987786       -2.4965338586        1.9303227369
 H          -14.6443769694       -2.0809520105        3.6984127010
 N          -15.6214744696       -0.6019731809        2.4801278745
 H          -15.3849390364        0.2080781524        1.9105776117
 C          -16.8985390704       -0.6286178629        2.8673538629
 N          -17.4202328080       -1.6043703068        3.5999066926
 H          -18.3792593226       -1.4965454490        3.8554297862
 H          -16.8543454561       -2.3759608991        3.9051763109
 N          -17.7039845410        0.3793811974        2.5436645449
 H          -18.6606887982        0.3256171520        2.8228442753
 H          -17.3689118243        1.1530176781        1.9919227150
 H          -13.6017998860       -1.2213302221        2.4751777891
 C          -11.3827306804        5.5711485479        3.4979834813
 H          -11.1611485564        6.4629952714        4.0845549153
 H          -10.5898073100        5.4605218415        2.7489801665
 O          -12.6532260368        5.7608482760        2.8892419248
 H          -12.8419505405        5.0157704684        2.2930316750
 H          -11.3592038805        4.6664861473        4.1615604282
 C          -10.8903743676       -0.4143584618       -1.5439663225
 O          -11.7825322251       -0.1323463916       -2.3627347609
 H          -10.4859741975       -1.4459426373       -1.5044711163
 N          -10.3906545745        0.4384134408       -0.6467145332
 H          -10.7794267620        1.3850613628       -0.5349735401
 H           -9.7458709234        0.1352598667        0.0803230522
 C          -16.2768658645        7.2157900208       -5.1459596508
 H          -15.7363912819        7.3255308729       -6.0888215671
 H          -15.6205367166        7.5553352108       -4.3376909689
 N          -16.6121037415        5.7985733025       -4.9853475068
 H          -16.3732606190        5.1526282646       -5.7686681532
 C          -16.8435403405        5.2232485038       -3.7933375148
 N          -16.8939259111        5.9416303827       -2.6579903082
 H          -17.2451696507        5.5083209489       -1.7973433358
 H          -16.9589575387        6.9617622112       -2.6629358642
 N          -17.0457201559        3.9034169386       -3.7180473086
 H          -16.9444894229        3.4521697246       -2.8068138150
 H          -16.9133734852        3.3144410580       -4.5711426603
 H          -17.2009282518        7.8292182408       -5.1781110155
 N          -13.9538821134        9.9997914147        3.5757886156
 H          -14.7620651864       10.4241162282        3.1315230232
 C          -13.9687067208        9.0312784985        4.5617520196
 H          -14.8570827505        8.4917835327        4.8751327109
 C          -12.6523392817       10.3415956215        3.3612143661
 H          -12.3465292291       11.0726839973        2.6253385342
 N          -11.8394124964        9.6482833436        4.1406258293
 C          -12.6549754037        8.8334716559        4.8961055657
 H          -12.2483033175        8.1546661989        5.6322560948
 C          -20.6300187622        6.8354764640        0.8982765539
 H          -21.5923216105        7.3335903892        0.7490655320
 H          -19.8940155444        7.5824459434        1.2220080516
 O          -20.2631251336        6.2456867513       -0.3480879077
 H          -19.3869059790        5.7623450247       -0.2524954358
 H          -20.7407105644        6.0807024787        1.7252297336
 C          -20.7699002846        1.6172833018       -0.5264579838
 H          -21.3736907943        0.8502365807       -1.0188168807
 H          -20.4425772458        2.3368186810       -1.2884676466
 O          -19.6538099494        0.9676800325        0.0771816568
 H          -19.0775322780        1.6788589059        0.5229381397
 H          -21.4034824949        2.1689463783        0.2181054777