145
dUTPase TS
Mg          -15.3928589719        1.4593414343       -0.9892091431
 C           -8.4316660790        5.5376973694       -2.9726964099
 O           -9.3965512986        5.7583426971       -2.2399593227
 H           -7.7623081140        4.6880097462       -2.7694589757
 N           -8.1242124319        6.2456388064       -4.0806396990
 H           -7.2261947592        6.0483312939       -4.5373204672
 C           -8.9434717359        7.3285538167       -4.6189255344
 H           -9.7647604689        7.4924932906       -3.9208754451
 H           -8.3940325367        8.2737819543       -4.7629321798
 H           -9.3557686858        6.9731766546       -5.5677225089
 C          -12.8756230242        5.6471627082       -6.6545028372
 H          -13.4871686447        6.4165809479       -6.1810192859
 H          -13.4255093030        5.2250469268       -7.4987949597
 C          -12.5236137949        4.5339850454       -5.6482676610
 O          -12.0159535953        3.4738423596       -6.0652909836
 O          -12.7386586357        4.7887833826       -4.4066646540
 H          -11.9245595725        6.1041063398       -7.0123576638
 C          -13.8335176371        5.7389700624       -0.9430636880
 H          -14.3840975787        5.6194072369       -0.0081578337
 H          -14.4385663522        5.3379873249       -1.7604234539
 O          -12.5923517225        5.0051849942       -0.8449808263
 P          -12.5088641167        3.4090599108       -0.8870948912
 O          -13.7548092252        2.6632119573       -1.2879858078
 O          -11.3314143408        2.8707048167       -0.1345087259
 O          -13.5341715173        3.6511417123        1.2811702572
 P          -14.8591634181        3.0344455157        1.7458901376
 O          -15.2078272185        1.6837902452        1.0568034147
 O          -14.9939547271        3.0128590324        3.2670472413
 O          -16.0282515024        4.1133715772        1.1990204915
 P          -17.3277066279        3.7027848246        0.2753756863
 O          -18.2335004785        2.8219528109        1.1823907911
 O          -16.8124510809        2.9379674600       -0.9721920199
 O          -17.9372592482        5.0646525251       -0.1263357400
 C          -13.4984143031        7.1848506039       -1.2418094304
 H          -14.4272666738        7.6909115189       -1.5435096903
 O          -12.9661402926        7.8430584095       -0.0669306460
 C          -12.0164978886        8.8304799410       -0.4369621884
 H          -12.3343195029        9.8125171994       -0.0876162265
 N          -10.7358116520        8.5608381488        0.2665776554
 C          -10.2174654536        7.2891104217        0.2295019559
 H          -10.8627733595        6.5317795272       -0.1923960570
 C          -10.0324883911        9.6155081021        0.8393470368
 O          -10.4441633444       10.7778570974        0.8665871767
 N           -8.8022570372        9.2641775424        1.3692081026
 H           -8.3655342531        9.9800513667        1.9703704829
 C           -8.1983992867        8.0118020277        1.3206561923
 O           -7.0612433004        7.8421089766        1.8063794595
 C           -8.9833904114        6.9909340149        0.6970057473
 H           -8.6131242252        5.9771927182        0.6432402485
 C          -11.8745544883        8.7548113012       -1.9663126171
 H          -10.8475999578        8.9024668309       -2.3016409023
 H          -12.5005846692        9.5155546623       -2.4201383672
 C          -12.4508331118        7.3943536442       -2.3443506300
 H          -11.6814958700        6.6196571295       -2.2916688532
 O          -13.0286381150        7.4020425826       -3.6398944135
 H          -12.9730490451        6.4791255595       -3.9754403164
 O           -9.4445460727        8.1701575947        4.7741383020
 H          -10.0306428092        8.9058099294        4.4864385661
 H           -8.5086167484        8.4185887427        4.6111066276
 O          -15.3825346397        1.2280535586        5.1814125110
 H          -15.3916110978        0.3642860129        4.7428058554
 H          -15.2919164662        1.8808169431        4.4293663925
 O           -9.7764520298        6.4308914341        6.8625752524
 H          -10.5741481767        5.8967045780        6.6644345588
 H           -9.6744393825        7.0613465223        6.1073999222
 O          -11.7432276980        3.3827805556       -2.5594490877
 H          -12.1923265537        3.9506046533       -3.3710437509
 H          -11.7412572130        2.4423166482       -2.8457574874
 O          -15.7857324465       -1.0711712032       -4.3444303297
 H          -15.0162553035       -1.3050409248       -4.9122341092
 H          -15.6686293173       -1.6116922344       -3.5161126419
 O          -15.8648683350       12.0060836382        1.2237438026
 H          -15.0712827472       12.1346709371        0.6578580150
 H          -16.6017082187       11.9307112571        0.5807068492
 O          -12.6512861721        1.0215752972       -4.9381441032
 H          -12.1184441197        0.6813788108       -4.1954030021
 H          -12.3022325879        1.8980479742       -5.2192544299
 O          -17.0460003169        0.1260230044       -1.0074982401
 H          -17.9275415093        0.4779124746       -0.7703795238
 H          -17.1211210582       -0.8609193259       -1.0887872184
 O          -15.3568656466        1.3770787847       -3.1574927451
 H          -14.5258449070        1.6559197400       -3.5809578599
 H          -15.5957167520        0.5445794989       -3.6329321706
 O          -14.1727953751       -0.3325229589       -1.0759738465
 H          -13.3832172601       -0.1833681839       -1.6351815252
 H          -14.6408019000       -1.1140544047       -1.4803046539
 C          -14.6063271499       -1.6670823992        2.6459087458
 H          -14.8167794563       -2.4782608902        1.9129121133
 H          -14.6576516451       -2.0678214735        3.6824617596
 N          -15.6070994286       -0.5734202893        2.4671218480
 H          -15.3543887768        0.2576379900        1.9270832604
 C          -16.8855007415       -0.5916616938        2.8467913339
 N          -17.4229790316       -1.5802100056        3.5522677752
 H          -18.3793937308       -1.4559638023        3.8118247430
 H          -16.8580744076       -2.3456728838        3.8698975624
 N          -17.6735324218        0.4337422322        2.5412878560
 H          -18.6306831743        0.4013904132        2.8123453761
 H          -17.3093265832        1.2205281423        2.0238959189
 H          -13.6001773483       -1.2225043617        2.4650543782
 C          -11.4367726821        5.5538049477        3.4335449816
 H          -11.2506772193        6.4585726335        4.0154732002
 H          -10.6174984965        5.4550209525        2.7089069667
 O          -12.6872205090        5.6968083234        2.7939774696
 H          -12.8845959246        4.9115912213        2.2187018606
 H          -11.3964664770        4.6593297304        4.1121081908
 C          -10.7972266732       -0.3834276334       -1.5715425344
 O          -11.5914982802        0.0053287753       -2.4634165855
 H          -10.4497649720       -1.4356817255       -1.5461178857
 N          -10.3424409781        0.3986224427       -0.6044381721
 H          -10.7133675624        1.3611058041       -0.4849726860
 H           -9.7569233665        0.0442403143        0.1521165526
 C          -16.2922129054        7.2067880283       -5.1262026138
 H          -15.7459492733        7.3127781977       -6.0671330273
 H          -15.6409963515        7.5489437066       -4.3145898085
 N          -16.6336918558        5.7913955606       -4.9629306715
 H          -16.3944903150        5.1467088229       -5.7441474567
 C          -16.8637152732        5.2160971210       -3.7624503117
 N          -16.9222846031        5.9390001605       -2.6344200305
 H          -17.2613096150        5.5069858580       -1.7595151205
 H          -16.9916645248        6.9588728442       -2.6447141545
 N          -17.0396354090        3.8955782680       -3.6853489192
 H          -16.9753132055        3.4465641489       -2.7634492982
 H          -16.9183672135        3.3088038971       -4.5389035065
 H          -17.2130375244        7.8242561719       -5.1654100880
 N          -13.9577743619        9.9884490366        3.5914802535
 H          -14.7684458751       10.4088611094        3.1486566192
 C          -13.9682174549        9.0107932843        4.5677230155
 H          -14.8547354574        8.4647899157        4.8751888099
 C          -12.6581658932       10.3392712006        3.3806409602
 H          -12.3563851312       11.0798886977        2.6526882300
 N          -11.8418711301        9.6438641807        4.1548755856
 C          -12.6540228303        8.8175246802        4.9023673363
 H          -12.2443115291        8.1316310861        5.6300396993
 C          -20.6100594552        6.8210476218        0.8879313849
 H          -21.5709216957        7.3230316012        0.7384596952
 H          -19.8708688855        7.5667910096        1.2083139793
 O          -20.2466542097        6.2243509886       -0.3546512794
 H          -19.3649464968        5.7334115520       -0.2560938392
 H          -20.7225387598        6.0713657834        1.7193936225
 C          -20.7428620743        1.6108048598       -0.5156220739
 H          -21.3382305438        0.8358928280       -1.0081647374
 H          -20.4137981146        2.3280509076       -1.2796564088
 O          -19.6285578646        0.9788586348        0.1048597988
 H          -19.0490308951        1.7135463989        0.5426044537
 H          -21.3883342457        2.1642444555        0.2177434477
